p cnf 22 21
-9 3 0
5 -17 -20 0
12 7 11 3 16 9 -20 -6 8 2 10 0
17 14 0
-4 -7 9 16 -2 -14 22 13 -21 12 17 -15 -5 -11 19 20 -3 1 0
20 -16 9 -1 -18 8 -10 0
9 -10 7 -17 6 12 -11 1 -19 20 18 -13 14 -15 -3 4 -16 0
2 -9 -3 0
12 7 15 0
14 -1 -10 0
4 -2 -19 0
16 5 13 7 -10 -17 -18 -2 -19 9 -1 15 -3 -12 -14 11 -4 -22 0
-9 -10 12 -5 0
20 -15 11 0
-7 14 -16 1 22 -13 19 6 17 15 -5 -2 0
-9 -22 12 13 0
-7 1 10 3 0
-12 20 6 0
-14 3 -17 0
-13 7 19 4 -9 -15 0
17 21 -13 0
